c Este es el tablero 0 en CNF
p cnf 64 786
1 0 62 0
1 2 3 4 0 
5 6 7 8 0 
9 10 11 12 0 
13 14 15 16 0 
17 18 19 20 0 
21 22 23 24 0 
25 26 27 28 0 
29 30 31 32 0 
33 34 35 36 0 
37 38 39 40 0 
41 42 43 44 0 
45 46 47 48 0 
49 50 51 52 0 
53 54 55 56 0 
57 58 59 60 0 
61 62 63 64 0 
-1 -2 0 -1 -3 0 -1 -4 0 -2 -1 0 -2 -3 0 -2 -4 0 -3 -1 0 -3 -2 0 -3 -4 0 -4 -1 0 -4 -2 0 -4 -3 0 
-5 -6 0 -5 -7 0 -5 -8 0 -6 -5 0 -6 -7 0 -6 -8 0 -7 -5 0 -7 -6 0 -7 -8 0 -8 -5 0 -8 -6 0 -8 -7 0 
-9 -10 0 -9 -11 0 -9 -12 0 -10 -9 0 -10 -11 0 -10 -12 0 -11 -9 0 -11 -10 0 -11 -12 0 -12 -9 0 -12 -10 0 -12 -11 0 
-13 -14 0 -13 -15 0 -13 -16 0 -14 -13 0 -14 -15 0 -14 -16 0 -15 -13 0 -15 -14 0 -15 -16 0 -16 -13 0 -16 -14 0 -16 -15 0 
-17 -18 0 -17 -19 0 -17 -20 0 -18 -17 0 -18 -19 0 -18 -20 0 -19 -17 0 -19 -18 0 -19 -20 0 -20 -17 0 -20 -18 0 -20 -19 0 
-21 -22 0 -21 -23 0 -21 -24 0 -22 -21 0 -22 -23 0 -22 -24 0 -23 -21 0 -23 -22 0 -23 -24 0 -24 -21 0 -24 -22 0 -24 -23 0 
-25 -26 0 -25 -27 0 -25 -28 0 -26 -25 0 -26 -27 0 -26 -28 0 -27 -25 0 -27 -26 0 -27 -28 0 -28 -25 0 -28 -26 0 -28 -27 0 
-29 -30 0 -29 -31 0 -29 -32 0 -30 -29 0 -30 -31 0 -30 -32 0 -31 -29 0 -31 -30 0 -31 -32 0 -32 -29 0 -32 -30 0 -32 -31 0 
-33 -34 0 -33 -35 0 -33 -36 0 -34 -33 0 -34 -35 0 -34 -36 0 -35 -33 0 -35 -34 0 -35 -36 0 -36 -33 0 -36 -34 0 -36 -35 0 
-37 -38 0 -37 -39 0 -37 -40 0 -38 -37 0 -38 -39 0 -38 -40 0 -39 -37 0 -39 -38 0 -39 -40 0 -40 -37 0 -40 -38 0 -40 -39 0 
-41 -42 0 -41 -43 0 -41 -44 0 -42 -41 0 -42 -43 0 -42 -44 0 -43 -41 0 -43 -42 0 -43 -44 0 -44 -41 0 -44 -42 0 -44 -43 0 
-45 -46 0 -45 -47 0 -45 -48 0 -46 -45 0 -46 -47 0 -46 -48 0 -47 -45 0 -47 -46 0 -47 -48 0 -48 -45 0 -48 -46 0 -48 -47 0 
-49 -50 0 -49 -51 0 -49 -52 0 -50 -49 0 -50 -51 0 -50 -52 0 -51 -49 0 -51 -50 0 -51 -52 0 -52 -49 0 -52 -50 0 -52 -51 0 
-53 -54 0 -53 -55 0 -53 -56 0 -54 -53 0 -54 -55 0 -54 -56 0 -55 -53 0 -55 -54 0 -55 -56 0 -56 -53 0 -56 -54 0 -56 -55 0 
-57 -58 0 -57 -59 0 -57 -60 0 -58 -57 0 -58 -59 0 -58 -60 0 -59 -57 0 -59 -58 0 -59 -60 0 -60 -57 0 -60 -58 0 -60 -59 0 
-61 -62 0 -61 -63 0 -61 -64 0 -62 -61 0 -62 -63 0 -62 -64 0 -63 -61 0 -63 -62 0 -63 -64 0 -64 -61 0 -64 -62 0 -64 -63 0 
-1 -5 0 -1 -9 0 -1 -13 0 -2 -6 0 -2 -10 0 -2 -14 0 -3 -7 0 -3 -11 0 -3 -15 0 -4 -8 0 -4 -12 0 -4 -16 0 
-5 -1 0 -5 -9 0 -5 -13 0 -6 -2 0 -6 -10 0 -6 -14 0 -7 -3 0 -7 -11 0 -7 -15 0 -8 -4 0 -8 -12 0 -8 -16 0 
-9 -1 0 -9 -5 0 -9 -13 0 -10 -2 0 -10 -6 0 -10 -14 0 -11 -3 0 -11 -7 0 -11 -15 0 -12 -4 0 -12 -8 0 -12 -16 0 
-13 -1 0 -13 -5 0 -13 -9 0 -14 -2 0 -14 -6 0 -14 -10 0 -15 -3 0 -15 -7 0 -15 -11 0 -16 -4 0 -16 -8 0 -16 -12 0 
-17 -21 0 -17 -25 0 -17 -29 0 -18 -22 0 -18 -26 0 -18 -30 0 -19 -23 0 -19 -27 0 -19 -31 0 -20 -24 0 -20 -28 0 -20 -32 0 
-21 -17 0 -21 -25 0 -21 -29 0 -22 -18 0 -22 -26 0 -22 -30 0 -23 -19 0 -23 -27 0 -23 -31 0 -24 -20 0 -24 -28 0 -24 -32 0 
-25 -17 0 -25 -21 0 -25 -29 0 -26 -18 0 -26 -22 0 -26 -30 0 -27 -19 0 -27 -23 0 -27 -31 0 -28 -20 0 -28 -24 0 -28 -32 0 
-29 -17 0 -29 -21 0 -29 -25 0 -30 -18 0 -30 -22 0 -30 -26 0 -31 -19 0 -31 -23 0 -31 -27 0 -32 -20 0 -32 -24 0 -32 -28 0 
-33 -37 0 -33 -41 0 -33 -45 0 -34 -38 0 -34 -42 0 -34 -46 0 -35 -39 0 -35 -43 0 -35 -47 0 -36 -40 0 -36 -44 0 -36 -48 0 
-37 -33 0 -37 -41 0 -37 -45 0 -38 -34 0 -38 -42 0 -38 -46 0 -39 -35 0 -39 -43 0 -39 -47 0 -40 -36 0 -40 -44 0 -40 -48 0 
-41 -33 0 -41 -37 0 -41 -45 0 -42 -34 0 -42 -38 0 -42 -46 0 -43 -35 0 -43 -39 0 -43 -47 0 -44 -36 0 -44 -40 0 -44 -48 0 
-45 -33 0 -45 -37 0 -45 -41 0 -46 -34 0 -46 -38 0 -46 -42 0 -47 -35 0 -47 -39 0 -47 -43 0 -48 -36 0 -48 -40 0 -48 -44 0 
-49 -53 0 -49 -57 0 -49 -61 0 -50 -54 0 -50 -58 0 -50 -62 0 -51 -55 0 -51 -59 0 -51 -63 0 -52 -56 0 -52 -60 0 -52 -64 0 
-53 -49 0 -53 -57 0 -53 -61 0 -54 -50 0 -54 -58 0 -54 -62 0 -55 -51 0 -55 -59 0 -55 -63 0 -56 -52 0 -56 -60 0 -56 -64 0 
-57 -49 0 -57 -53 0 -57 -61 0 -58 -50 0 -58 -54 0 -58 -62 0 -59 -51 0 -59 -55 0 -59 -63 0 -60 -52 0 -60 -56 0 -60 -64 0 
-61 -49 0 -61 -53 0 -61 -57 0 -62 -50 0 -62 -54 0 -62 -58 0 -63 -51 0 -63 -55 0 -63 -59 0 -64 -52 0 -64 -56 0 -64 -60 0 
-1 -17 0 -1 -33 0 -1 -49 0 -2 -18 0 -2 -34 0 -2 -50 0 -3 -19 0 -3 -35 0 -3 -51 0 -4 -20 0 -4 -36 0 -4 -52 0 
-5 -21 0 -5 -37 0 -5 -53 0 -6 -22 0 -6 -38 0 -6 -54 0 -7 -23 0 -7 -39 0 -7 -55 0 -8 -24 0 -8 -40 0 -8 -56 0 
-9 -25 0 -9 -41 0 -9 -57 0 -10 -26 0 -10 -42 0 -10 -58 0 -11 -27 0 -11 -43 0 -11 -59 0 -12 -28 0 -12 -44 0 -12 -60 0 
-13 -29 0 -13 -45 0 -13 -61 0 -14 -30 0 -14 -46 0 -14 -62 0 -15 -31 0 -15 -47 0 -15 -63 0 -16 -32 0 -16 -48 0 -16 -64 0 
-17 -1 0 -17 -33 0 -17 -49 0 -18 -2 0 -18 -34 0 -18 -50 0 -19 -3 0 -19 -35 0 -19 -51 0 -20 -4 0 -20 -36 0 -20 -52 0 
-21 -5 0 -21 -37 0 -21 -53 0 -22 -6 0 -22 -38 0 -22 -54 0 -23 -7 0 -23 -39 0 -23 -55 0 -24 -8 0 -24 -40 0 -24 -56 0 
-25 -9 0 -25 -41 0 -25 -57 0 -26 -10 0 -26 -42 0 -26 -58 0 -27 -11 0 -27 -43 0 -27 -59 0 -28 -12 0 -28 -44 0 -28 -60 0 
-29 -13 0 -29 -45 0 -29 -61 0 -30 -14 0 -30 -46 0 -30 -62 0 -31 -15 0 -31 -47 0 -31 -63 0 -32 -16 0 -32 -48 0 -32 -64 0 
-33 -1 0 -33 -17 0 -33 -49 0 -34 -2 0 -34 -18 0 -34 -50 0 -35 -3 0 -35 -19 0 -35 -51 0 -36 -4 0 -36 -20 0 -36 -52 0 
-37 -5 0 -37 -21 0 -37 -53 0 -38 -6 0 -38 -22 0 -38 -54 0 -39 -7 0 -39 -23 0 -39 -55 0 -40 -8 0 -40 -24 0 -40 -56 0 
-41 -9 0 -41 -25 0 -41 -57 0 -42 -10 0 -42 -26 0 -42 -58 0 -43 -11 0 -43 -27 0 -43 -59 0 -44 -12 0 -44 -28 0 -44 -60 0 
-45 -13 0 -45 -29 0 -45 -61 0 -46 -14 0 -46 -30 0 -46 -62 0 -47 -15 0 -47 -31 0 -47 -63 0 -48 -16 0 -48 -32 0 -48 -64 0 
-49 -1 0 -49 -17 0 -49 -33 0 -50 -2 0 -50 -18 0 -50 -34 0 -51 -3 0 -51 -19 0 -51 -35 0 -52 -4 0 -52 -20 0 -52 -36 0 
-53 -5 0 -53 -21 0 -53 -37 0 -54 -6 0 -54 -22 0 -54 -38 0 -55 -7 0 -55 -23 0 -55 -39 0 -56 -8 0 -56 -24 0 -56 -40 0 
-57 -9 0 -57 -25 0 -57 -41 0 -58 -10 0 -58 -26 0 -58 -42 0 -59 -11 0 -59 -27 0 -59 -43 0 -60 -12 0 -60 -28 0 -60 -44 0 
-61 -13 0 -61 -29 0 -61 -45 0 -62 -14 0 -62 -30 0 -62 -46 0 -63 -15 0 -63 -31 0 -63 -47 0 -64 -16 0 -64 -32 0 -64 -48 0 
-1 -5 0 -1 -17 0 -1 -21 0 -2 -6 0 -2 -18 0 -2 -22 0 -3 -7 0 -3 -19 0 -3 -23 0 -4 -8 0 -4 -20 0 -4 -24 0 
-5 -1 0 -5 -17 0 -5 -21 0 -6 -2 0 -6 -18 0 -6 -22 0 -7 -3 0 -7 -19 0 -7 -23 0 -8 -4 0 -8 -20 0 -8 -24 0 
-9 -13 0 -9 -25 0 -9 -29 0 -10 -14 0 -10 -26 0 -10 -30 0 -11 -15 0 -11 -27 0 -11 -31 0 -12 -16 0 -12 -28 0 -12 -32 0 
-13 -9 0 -13 -25 0 -13 -29 0 -14 -10 0 -14 -26 0 -14 -30 0 -15 -11 0 -15 -27 0 -15 -31 0 -16 -12 0 -16 -28 0 -16 -32 0 
-17 -1 0 -17 -5 0 -17 -21 0 -18 -2 0 -18 -6 0 -18 -22 0 -19 -3 0 -19 -7 0 -19 -23 0 -20 -4 0 -20 -8 0 -20 -24 0 
-21 -1 0 -21 -5 0 -21 -17 0 -22 -2 0 -22 -6 0 -22 -18 0 -23 -3 0 -23 -7 0 -23 -19 0 -24 -4 0 -24 -8 0 -24 -20 0 
-25 -9 0 -25 -13 0 -25 -29 0 -26 -10 0 -26 -14 0 -26 -30 0 -27 -11 0 -27 -15 0 -27 -31 0 -28 -12 0 -28 -16 0 -28 -32 0 
-29 -9 0 -29 -13 0 -29 -25 0 -30 -10 0 -30 -14 0 -30 -26 0 -31 -11 0 -31 -15 0 -31 -27 0 -32 -12 0 -32 -16 0 -32 -28 0 
-33 -37 0 -33 -49 0 -33 -53 0 -34 -38 0 -34 -50 0 -34 -54 0 -35 -39 0 -35 -51 0 -35 -55 0 -36 -40 0 -36 -52 0 -36 -56 0 
-37 -33 0 -37 -49 0 -37 -53 0 -38 -34 0 -38 -50 0 -38 -54 0 -39 -35 0 -39 -51 0 -39 -55 0 -40 -36 0 -40 -52 0 -40 -56 0 
-41 -45 0 -41 -57 0 -41 -61 0 -42 -46 0 -42 -58 0 -42 -62 0 -43 -47 0 -43 -59 0 -43 -63 0 -44 -48 0 -44 -60 0 -44 -64 0 
-45 -41 0 -45 -57 0 -45 -61 0 -46 -42 0 -46 -58 0 -46 -62 0 -47 -43 0 -47 -59 0 -47 -63 0 -48 -44 0 -48 -60 0 -48 -64 0 
-49 -33 0 -49 -37 0 -49 -53 0 -50 -34 0 -50 -38 0 -50 -54 0 -51 -35 0 -51 -39 0 -51 -55 0 -52 -36 0 -52 -40 0 -52 -56 0 
-53 -33 0 -53 -37 0 -53 -49 0 -54 -34 0 -54 -38 0 -54 -50 0 -55 -35 0 -55 -39 0 -55 -51 0 -56 -36 0 -56 -40 0 -56 -52 0 
-57 -41 0 -57 -45 0 -57 -61 0 -58 -42 0 -58 -46 0 -58 -62 0 -59 -43 0 -59 -47 0 -59 -63 0 -60 -44 0 -60 -48 0 -60 -64 0 
-61 -41 0 -61 -45 0 -61 -57 0 -62 -42 0 -62 -46 0 -62 -58 0 -63 -43 0 -63 -47 0 -63 -59 0 -64 -44 0 -64 -48 0 -64 -60 
